(set-option :print-success false)
(set-logic QF_UF)
(declare-sort x10 0)
(declare-sort x111 0)
(declare-fun x23 () x111)
(declare-fun x150 (x111 x111) x111)
(declare-fun x127 () x111)
(declare-fun x97 () x111)
(declare-fun x37 () x111)
(declare-fun x126 () x111)
(assert (let ((x131 (x150 x127 x126)) (x119 (x150 x97 x127)) (x49 (x150 x126 x127)) (x105 (x150 x97 x126)) (x19 (x150 x97 x37)) (x66 (x150 x23 x37)) (x42 (x150 x126 x37)) (x141 (x150 x127 x127)) (x93 (x150 x37 x23)) (x82 (x150 x127 x23)) (x76 (x150 x23 x97)) (x110 (x150 x127 x97)) (x75 (x150 x97 x97)) (x149 (x150 x37 x126)) (x33 (x150 x97 x23)) (x13 (x150 x37 x97)) (x32 (x150 x127 x37)) (x25 (x150 x23 x23)) (x68 (x150 x126 x23)) (x43 (x150 x126 x97)) (x15 (x150 x37 x127)) (x79 (x150 x23 x127)) (x138 (x150 x126 x126)) (x153 (x150 x23 x126)) (x101 (x150 x37 x37))) (and (and (and (and (and (and (and (and (or (or (or (= x25 x127) (or (= x25 x126) (= x25 x23))) (= x97 x25)) (= x25 x37)) (or (= x153 x37) (or (= x97 x153) (or (= x153 x127) (or (= x153 x23) (= x126 x153)))))) (or (or (or (= x79 x127) (or (= x79 x126) (= x23 x79))) (= x97 x79)) (= x37 x79))) (or (or (or (= x127 x76) (or (= x76 x23) (= x76 x126))) (= x76 x97)) (= x76 x37))) (or (= x66 x37) (or (or (= x127 x66) (or (= x126 x66) (= x23 x66))) (= x66 x97)))) (and (or (= x42 x37) (or (= x97 x42) (or (or (= x42 x126) (= x42 x23)) (= x127 x42)))) (and (and (or (or (= x97 x49) (or (= x127 x49) (or (= x49 x126) (= x23 x49)))) (= x37 x49)) (and (or (= x37 x138) (or (= x97 x138) (or (= x127 x138) (or (= x138 x23) (= x138 x126))))) (or (= x68 x37) (or (= x68 x97) (or (= x68 x127) (or (= x68 x23) (= x126 x68))))))) (or (or (= x97 x43) (or (= x127 x43) (or (= x126 x43) (= x23 x43)))) (= x43 x37))))) (and (or (or (or (= x127 x32) (or (= x23 x32) (= x32 x126))) (= x32 x97)) (= x37 x32)) (and (or (= x110 x37) (or (= x97 x110) (or (= x110 x127) (or (= x126 x110) (= x23 x110))))) (and (or (or (= x97 x141) (or (or (= x141 x126) (= x23 x141)) (= x141 x127))) (= x141 x37)) (and (or (or (or (or (= x131 x126) (= x131 x23)) (= x127 x131)) (= x131 x97)) (= x37 x131)) (or (= x37 x82) (or (or (= x82 x127) (or (= x126 x82) (= x82 x23))) (= x97 x82)))))))) (and (and (and (and (or (or (= x97 x105) (or (= x127 x105) (or (= x105 x23) (= x126 x105)))) (= x105 x37)) (or (or (= x97 x33) (or (= x33 x127) (or (= x33 x23) (= x33 x126)))) (= x37 x33))) (or (= x119 x37) (or (= x119 x97) (or (or (= x119 x126) (= x23 x119)) (= x127 x119))))) (or (= x75 x37) (or (or (or (= x75 x126) (= x75 x23)) (= x127 x75)) (= x75 x97)))) (or (= x19 x37) (or (or (= x127 x19) (or (= x19 x23) (= x126 x19))) (= x97 x19))))) (and (and (and (or (or (or (= x127 x15) (or (= x126 x15) (= x23 x15))) (= x97 x15)) (= x37 x15)) (and (or (or (= x97 x93) (or (= x93 x127) (or (= x93 x23) (= x93 x126)))) (= x37 x93)) (or (or (= x97 x149) (or (or (= x149 x23) (= x126 x149)) (= x127 x149))) (= x37 x149)))) (or (= x13 x37) (or (= x97 x13) (or (= x13 x127) (or (= x126 x13) (= x23 x13)))))) (or (= x101 x37) (or (or (or (= x126 x101) (= x101 x23)) (= x101 x127)) (= x97 x101)))))))
(assert (not (and (= (x150 x126 x97) x127) (and (= x97 (x150 x37 x23)) (and (= x23 (x150 x37 x37)) (= x126 (x150 x23 x37)))))))
(assert (not (and (and (and (= x126 (x150 x127 x127)) (= x37 (x150 x126 x127))) (= x97 (x150 x127 x126))) (= x23 (x150 x37 x97)))))
(assert (and (and (not (= x37 x127)) (and (and (and (and (and (and (not (= x97 x23)) (and (not (= x23 x126)) (not (= x127 x23)))) (not (= x37 x23))) (not (= x126 x127))) (not (= x126 x97))) (not (= x126 x37))) (not (= x127 x97)))) (not (= x37 x97))))
(assert (not (and (and (and (= (x150 x127 x127) x37) (= (x150 x37 x127) x23)) (= (x150 x127 x37) x126)) (= (x150 x23 x126) x97))))
(assert (not (and (= x37 (x150 x97 x126)) (and (and (= x97 (x150 x127 x23)) (= (x150 x23 x23) x127)) (= x126 (x150 x23 x127))))))
(assert (not (and (= (x150 x126 x97) x127) (and (= (x150 x23 x37) x97) (and (= x126 (x150 x37 x23)) (= (x150 x23 x23) x37))))))
(assert (not (and (and (= x127 (x150 x97 x37)) (and (= x126 (x150 x37 x97)) (= (x150 x97 x97) x37))) (= x23 (x150 x126 x127)))))
(assert (not (and (and (= (x150 x97 x126) x23) (and (= x126 (x150 x97 x97)) (= x127 (x150 x126 x97)))) (= (x150 x127 x23) x37))))
(assert (not (and (= x37 (x150 x126 x23)) (and (and (= x126 (x150 x127 x97)) (= x127 (x150 x97 x97))) (= (x150 x97 x127) x23)))))
(assert (not (and (and (= (x150 x126 x37) x127) (and (= (x150 x37 x126) x97) (= x37 (x150 x126 x126)))) (= (x150 x97 x127) x23))))
(assert (not (and (= (x150 x126 x127) x23) (and (= (x150 x37 x97) x127) (and (= x126 (x150 x97 x37)) (= (x150 x37 x37) x97))))))
(assert (not (and (= (x150 x37 x97) x127) (and (= (x150 x23 x126) x97) (and (= x126 (x150 x23 x23)) (= (x150 x126 x23) x37))))))
(assert (not (and (= x23 (x150 x126 x97)) (and (and (= (x150 x37 x37) x127) (= x126 (x150 x127 x37))) (= (x150 x37 x127) x97)))))
(assert (not (and (and (and (= x127 (x150 x23 x23)) (= (x150 x127 x23) x97)) (= (x150 x23 x127) x37)) (= x126 (x150 x97 x37)))))
(assert (not (and (= (x150 x126 x23) x97) (and (and (= (x150 x127 x37) x126) (= (x150 x37 x37) x127)) (= x23 (x150 x37 x127))))))
(assert (not (and (= (x150 x23 x37) x126) (and (= (x150 x127 x97) x37) (and (= x23 (x150 x97 x127)) (= (x150 x127 x127) x97))))))
(assert (and (and (not (= (x150 (x150 x97 x97) x97) x97)) (and (and (not (= x126 (x150 (x150 x126 x126) x126))) (not (= x23 (x150 (x150 x23 x23) x23)))) (not (= x127 (x150 (x150 x127 x127) x127))))) (not (= x37 (x150 (x150 x37 x37) x37)))))
(assert (not (and (and (and (= (x150 x126 x126) x127) (= (x150 x127 x126) x97)) (= (x150 x126 x127) x37)) (= (x150 x97 x37) x23))))
(assert (not (and (and (and (= x23 (x150 x126 x37)) (= (x150 x37 x37) x126)) (= x127 (x150 x37 x126))) (= x97 (x150 x23 x127)))))
(assert (not (and (and (and (= (x150 x97 x127) x37) (= (x150 x127 x127) x97)) (= x23 (x150 x127 x97))) (= x126 (x150 x37 x23)))))
(assert (not (and (= (x150 x126 x127) x97) (and (and (= (x150 x23 x23) x37) (= (x150 x37 x23) x126)) (= (x150 x23 x37) x127)))))
(assert (not (and (= x127 (x150 x126 x23)) (and (and (= x126 (x150 x37 x97)) (= (x150 x97 x97) x37)) (= x23 (x150 x97 x37))))))
(assert (not (and (and (and (= (x150 x37 x37) x127) (= x97 (x150 x127 x37))) (= x23 (x150 x37 x127))) (= (x150 x97 x23) x126))))
(assert (not (and (= (x150 x126 x127) x37) (and (= (x150 x23 x97) x127) (and (= x97 (x150 x23 x23)) (= (x150 x97 x23) x126))))))
(assert (not (and (and (and (= x126 (x150 x127 x127)) (= x97 (x150 x126 x127))) (= (x150 x127 x126) x37)) (= (x150 x97 x37) x23))))
(assert (not (and (and (= x37 (x150 x97 x23)) (and (= (x150 x97 x97) x23) (= (x150 x23 x97) x127))) (= x126 (x150 x127 x37)))))
(assert (not (and (and (= (x150 x97 x23) x126) (and (= x37 (x150 x23 x97)) (= (x150 x97 x97) x23))) (= (x150 x37 x126) x127))))
(assert (not (and (and (and (= x126 (x150 x23 x127)) (= (x150 x127 x127) x23)) (= x37 (x150 x127 x23))) (= x97 (x150 x126 x37)))))
(assert (not (and (= x97 (x150 x37 x127)) (and (and (= (x150 x126 x23) x37) (= x126 (x150 x23 x23))) (= x127 (x150 x23 x126))))))
(assert (not (and (and (= x126 (x150 x127 x23)) (and (= (x150 x23 x127) x97) (= x23 (x150 x127 x127)))) (= (x150 x97 x126) x37))))
(assert (not (and (and (= x37 (x150 x126 x97)) (and (= x127 (x150 x97 x126)) (= x97 (x150 x126 x126)))) (= x23 (x150 x127 x37)))))
(assert (not (and (= x127 (x150 x23 x97)) (and (and (= (x150 x37 x126) x23) (= x37 (x150 x126 x126))) (= (x150 x126 x37) x97)))))
(assert (not (and (and (and (= x37 (x150 x23 x23)) (= x127 (x150 x37 x23))) (= (x150 x23 x37) x97)) (= x126 (x150 x127 x97)))))
(assert (not (and (= x127 (x150 x23 x126)) (and (and (= x23 (x150 x37 x97)) (= (x150 x97 x97) x37)) (= (x150 x97 x37) x126)))))
(assert (not (and (= x127 (x150 x37 x97)) (and (and (= x23 (x150 x126 x126)) (= (x150 x23 x126) x37)) (= (x150 x126 x23) x97)))))
(assert (not (and (= (x150 x23 x37) x97) (and (= (x150 x126 x127) x37) (and (= x127 (x150 x126 x126)) (= (x150 x127 x126) x23))))))
(assert (not (and (= (x150 x97 x126) x23) (and (and (= x97 (x150 x127 x37)) (= (x150 x37 x37) x127)) (= (x150 x37 x127) x126)))))
(assert (not (and (= (x150 x97 x23) x37) (and (and (= (x150 x127 x127) x126) (= (x150 x126 x127) x97)) (= (x150 x127 x126) x23)))))
(assert (not (and (and (= x97 (x150 x127 x37)) (and (= x37 (x150 x127 x127)) (= (x150 x37 x127) x23))) (= x126 (x150 x23 x97)))))
(assert (not (and (and (= x127 (x150 x126 x97)) (and (= x97 (x150 x126 x126)) (= x37 (x150 x97 x126)))) (= (x150 x37 x127) x23))))
(assert (or (or (and (not (= (x150 x97 (x150 x97 x37)) x37)) (and (and (not (= x127 (x150 x97 (x150 x97 x127)))) (and (not (= x23 (x150 x97 (x150 x97 x23)))) (not (= x126 (x150 x97 (x150 x97 x126)))))) (not (= (x150 x97 (x150 x97 x97)) x97)))) (or (or (and (not (= (x150 x126 (x150 x126 x37)) x37)) (and (not (= x97 (x150 x126 (x150 x126 x97)))) (and (not (= x127 (x150 x126 (x150 x126 x127)))) (and (not (= x23 (x150 x126 (x150 x126 x23)))) (not (= x126 (x150 x126 (x150 x126 x126)))))))) (and (not (= (x150 x23 (x150 x23 x37)) x37)) (and (not (= x97 (x150 x23 (x150 x23 x97)))) (and (and (not (= x23 (x150 x23 (x150 x23 x23)))) (not (= (x150 x23 (x150 x23 x126)) x126))) (not (= (x150 x23 (x150 x23 x127)) x127)))))) (and (not (= x37 (x150 x127 (x150 x127 x37)))) (and (not (= (x150 x127 (x150 x127 x97)) x97)) (and (not (= x127 (x150 x127 (x150 x127 x127)))) (and (not (= x126 (x150 x127 (x150 x127 x126)))) (not (= (x150 x127 (x150 x127 x23)) x23)))))))) (and (not (= x37 (x150 x37 (x150 x37 x37)))) (and (and (and (not (= (x150 x37 (x150 x37 x126)) x126)) (not (= (x150 x37 (x150 x37 x23)) x23))) (not (= (x150 x37 (x150 x37 x127)) x127))) (not (= (x150 x37 (x150 x37 x97)) x97))))))
(assert (not (and (and (= x23 (x150 x37 x126)) (and (= x97 (x150 x126 x37)) (= (x150 x37 x37) x126))) (= (x150 x97 x23) x127))))
(assert (let ((x76 (x150 x97 x97)) (x66 (x150 x37 x37)) (x79 (x150 x127 x127)) (x153 (x150 x126 x126)) (x25 (x150 x23 x23))) (or (and (not (= x37 x66)) (and (not (= x76 x37)) (and (and (not (= x25 x37)) (not (= x37 x153))) (not (= x37 x79))))) (or (or (and (not (= x127 x66)) (and (and (and (not (= x127 x25)) (not (= x153 x127))) (not (= x127 x79))) (not (= x127 x76)))) (or (and (not (= x66 x126)) (and (and (not (= x79 x126)) (and (not (= x153 x126)) (not (= x126 x25)))) (not (= x76 x126)))) (and (and (and (not (= x23 x79)) (and (not (= x23 x25)) (not (= x153 x23)))) (not (= x76 x23))) (not (= x23 x66))))) (and (not (= x97 x66)) (and (not (= x76 x97)) (and (not (= x97 x79)) (and (not (= x25 x97)) (not (= x97 x153))))))))))
(assert (not (and (= x126 (x150 x23 x127)) (and (= x127 (x150 x97 x37)) (and (= (x150 x37 x97) x23) (= (x150 x97 x97) x37))))))
(assert (not (and (and (= x37 (x150 x23 x126)) (and (= x127 (x150 x126 x23)) (= (x150 x23 x23) x126))) (= (x150 x127 x37) x97))))
(assert (not (and (and (= x127 (x150 x97 x23)) (and (= (x150 x23 x97) x126) (= x23 (x150 x97 x97)))) (= x37 (x150 x126 x127)))))
(assert (not (and (and (= x97 (x150 x23 x127)) (and (= x127 (x150 x23 x23)) (= x126 (x150 x127 x23)))) (= (x150 x126 x97) x37))))
(assert (not (and (= x97 (x150 x127 x23)) (and (= x23 (x150 x37 x126)) (and (= x127 (x150 x126 x37)) (= x126 (x150 x37 x37)))))))
(assert (not (and (= (x150 x23 x37) x127) (and (= x37 (x150 x126 x97)) (and (= x23 (x150 x97 x126)) (= x97 (x150 x126 x126)))))))
(assert (not (and (= x127 (x150 x97 x23)) (and (= x23 (x150 x126 x37)) (and (= x37 (x150 x126 x126)) (= (x150 x37 x126) x97))))))
(assert (not (and (and (and (= x127 (x150 x37 x37)) (= x23 (x150 x127 x37))) (= (x150 x37 x127) x126)) (= (x150 x23 x126) x97))))
(assert (not (and (and (= x126 (x150 x37 x97)) (and (= x97 (x150 x37 x37)) (= x127 (x150 x97 x37)))) (= (x150 x127 x126) x23))))
(assert (not (and (and (and (= (x150 x37 x126) x127) (= (x150 x126 x126) x37)) (= (x150 x126 x37) x23)) (= x97 (x150 x127 x23)))))
(assert (not (and (and (and (= x126 (x150 x37 x37)) (= x97 (x150 x126 x37))) (= (x150 x37 x126) x127)) (= (x150 x97 x127) x23))))
(assert (not (and (= x37 (x150 x126 x23)) (and (and (= x126 (x150 x97 x127)) (= x97 (x150 x127 x127))) (= (x150 x127 x97) x23)))))
(assert (and (and (and (not (= x127 (x150 x127 x127))) (and (not (= (x150 x23 x23) x23)) (not (= x126 (x150 x126 x126))))) (not (= (x150 x97 x97) x97))) (not (= x37 (x150 x37 x37)))))
(assert (not (and (= (x150 x23 x127) x37) (and (= (x150 x97 x126) x127) (and (= (x150 x126 x97) x23) (= x126 (x150 x97 x97)))))))
(assert (not (and (and (= x126 (x150 x23 x97)) (and (= (x150 x23 x23) x97) (= (x150 x97 x23) x37))) (= (x150 x37 x126) x127))))
(assert (not (and (and (and (= (x150 x97 x37) x23) (= (x150 x37 x37) x97)) (= (x150 x37 x97) x126)) (= (x150 x23 x126) x127))))
(assert (not (and (= x37 (x150 x23 x126)) (and (= (x150 x127 x97) x126) (and (= (x150 x127 x127) x97) (= (x150 x97 x127) x23))))))
(assert (not (and (and (and (= x23 (x150 x97 x97)) (= x127 (x150 x23 x97))) (= x126 (x150 x97 x23))) (= x37 (x150 x127 x126)))))
(assert (not (and (and (and (= x97 (x150 x126 x126)) (= (x150 x97 x126) x37)) (= (x150 x126 x97) x23)) (= x127 (x150 x37 x23)))))
(assert (let ((x149 (x150 x126 x37)) (x154 (x150 x37 x126)) (x9 (x150 x37 x97)) (x70 (x150 x37 x37)) (x66 (x150 x23 x97)) (x68 (x150 x23 x37)) (x38 (x150 x127 x127)) (x43 (x150 x127 x23)) (x79 (x150 x23 x126)) (x19 (x150 x126 x127)) (x153 (x150 x23 x23)) (x93 (x150 x126 x97)) (x76 (x150 x23 x127)) (x42 (x150 x97 x23)) (x125 (x150 x97 x97)) (x121 (x150 x97 x37)) (x55 (x150 x97 x127)) (x54 (x150 x37 x127)) (x98 (x150 x127 x37)) (x49 (x150 x126 x23)) (x82 (x150 x37 x23)) (x81 (x150 x97 x126)) (x75 (x150 x126 x126)) (x87 (x150 x127 x97)) (x101 (x150 x127 x126))) (let ((x7 (= x97 x75)) (x147 (= x37 x87)) (x148 (= x97 x38)) (x85 (= x37 x79)) (x33 (= x79 x23)) (x28 (= x82 x37)) (x84 (= x149 x127)) (x71 (= x23 x19)) (x73 (= x43 x127)) (x112 (= x81 x23)) (x143 (= x149 x97)) (x155 (= x126 x70)) (x102 (= x23 x121)) (x59 (= x98 x127)) (x128 (= x42 x126)) (x134 (= x97 x19)) (x144 (= x97 x87)) (x130 (= x97 x54)) (x24 (= x37 x125)) (x50 (= x127 x121)) (x2 (= x126 x125)) (x74 (= x126 x38)) (x118 (= x37 x93)) (x31 (= x97 x98)) (x58 (= x19 x126)) (x100 (= x87 x126)) (x56 (= x126 x9)) (x120 (= x126 x149)) (x17 (= x93 x127)) (x13 (= x75 x126)) (x91 (= x66 x23)) (x116 (= x98 x23)) (x57 (= x127 x75)) (x4 (= x93 x97)) (x106 (= x81 x97)) (x96 (= x68 x97)) (x109 (= x101 x37)) (x30 (= x23 x55)) (x21 (= x76 x23)) (x52 (= x126 x54)) (x34 (= x87 x23)) (x80 (= x121 x126)) (x25 (= x23 x153)) (x151 (= x154 x126)) (x99 (= x121 x37)) (x92 (= x68 x126)) (x117 (= x23 x70)) (x61 (= x23 x43)) (x136 (= x97 x101)) (x158 (= x154 x37)) (x26 (= x19 x37)) (x46 (= x126 x98)) (x89 (= x127 x76)) (x48 (= x38 x37)) (x133 (= x127 x55)) (x69 (= x125 x127)) (x1 (= x97 x125)) (x32 (= x49 x23)) (x157 (= x97 x66)) (x14 (= x87 x127)) (x105 (= x75 x23)) (x41 (= x54 x23)) (x140 (= x19 x127)) (x145 (= x82 x126)) (x51 (= x101 x23)) (x122 (= x79 x127)) (x83 (= x23 x125)) (x78 (= x81 x127)) (x131 (= x153 x127)) (x53 (= x149 x37)) (x139 (= x76 x37)) (x64 (= x97 x70)) (x141 (= x97 x153)) (x62 (= x66 x127)) (x29 (= x23 x82)) (x113 (= x42 x97)) (x72 (= x127 x154)) (x18 (= x9 x23)) (x15 (= x126 x79)) (x132 (= x23 x93)) (x103 (= x81 x126)) (x142 (= x97 x55)) (x108 (= x127 x49)) (x3 (= x127 x42)) (x123 (= x154 x97)) (x44 (= x55 x37)) (x110 (= x37 x153)) (x90 (= x23 x154)) (x20 (= x37 x42)) (x107 (= x9 x127)) (x39 (= x37 x98)) (x5 (= x97 x82)) (x27 (= x126 x101)) (x152 (= x127 x68)) (x114 (= x43 x126)) (x63 (= x38 x23)) (x124 (= x68 x37)) (x129 (= x76 x126)) (x88 (= x43 x97)) (x138 (= x126 x153)) (x16 (= x149 x23)) (x77 (= x76 x97)) (x115 (= x37 x49)) (x156 (= x23 x68)) (x86 (= x38 x127)) (x94 (= x37 x81)) (x95 (= x126 x55)) (x40 (= x66 x126)) (x146 (= x9 x97)) (x47 (= x37 x70)) (x36 (= x37 x9)) (x35 (= x70 x127)) (x11 (= x97 x49)) (x60 (= x127 x82)) (x67 (= x127 x54)) (x104 (= x97 x121)) (x119 (= x126 x49)) (x22 (= x101 x127)) (x8 (= x75 x37)) (x45 (= x37 x54)) (x12 (= x43 x37)) (x137 (= x23 x42)) (x65 (= x66 x37)) (x135 (= x93 x126)) (x6 (= x79 x97))) (and (and (and (and (and (and (and (or (or (or x88 (or x11 x141)) x113) x5) (or (or (or x77 (or x6 x141)) x157) x96)) (and (and (or (or x62 (or (or x122 x131) x89)) x152) (or (or x3 (or (or x131 x108) x73)) x60)) (and (and (or x92 (or x40 (or (or x138 x15) x129))) (or (or (or (or x138 x119) x114) x128) x145)) (and (or (or x137 (or x61 (or x32 x25))) x29) (or (or x91 (or (or x33 x25) x21)) x156))))) (and (or (or (or x139 (or x110 x85)) x65) x124) (or (or x20 (or (or x115 x110) x12)) x28))) (and (and (or (or x118 (or x26 (or x8 x115))) x53) (or (or (or (or x85 x8) x109) x94) x158)) (and (and (and (or (or x78 (or (or x57 x122) x22)) x72) (or (or (or (or x57 x108) x140) x17) x84)) (and (and (or (or (or x51 (or x33 x105)) x112) x90) (or (or (or x71 (or x32 x105)) x132) x16)) (and (or x120 (or x135 (or x58 (or x13 x119)))) (or x151 (or (or x27 (or x13 x15)) x103))))) (and (or x143 (or x4 (or (or x11 x7) x134))) (or x123 (or (or (or x7 x6) x136) x106)))))) (and (and (or (or (or x48 (or x26 x139)) x44) x45) (or (or x147 (or (or x109 x12) x48)) x39)) (and (and (and (and (or (or x95 (or (or x129 x58) x74)) x52) (or (or (or x74 (or x114 x27)) x100) x46)) (and (or x41 (or (or (or x21 x71) x63) x30)) (or (or (or (or x51 x61) x63) x34) x116))) (and (or x59 (or (or (or x22 x73) x86) x14)) (or (or x133 (or (or x89 x140) x86)) x67))) (and (or (or (or (or x77 x134) x148) x142) x130) (or (or (or x148 (or x88 x136)) x144) x31))))) (and (and (or (or (or x44 (or x94 x20)) x24) x99) (or x36 (or x24 (or (or x65 x118) x147)))) (and (and (and (or x50 (or x69 (or x133 (or x78 x3)))) (or (or (or x14 (or x62 x17)) x69) x107)) (and (and (or x80 (or x2 (or (or x128 x103) x95))) (or (or x2 (or x100 (or x135 x40))) x56)) (and (or x102 (or x83 (or x30 (or x137 x112)))) (or x18 (or (or x34 (or x91 x132)) x83))))) (and (or (or (or x142 (or x106 x113)) x1) x104) (or x146 (or x1 (or x144 (or x157 x4)))))))) (and (and (or x47 (or (or (or x53 x124) x39) x99)) (or x47 (or x36 (or (or x28 x158) x45)))) (and (and (or (or (or (or x5 x123) x130) x146) x64) (or x64 (or x104 (or (or x96 x143) x31)))) (and (and (or x35 (or (or (or x84 x152) x59) x50)) (or (or (or (or x72 x60) x67) x107) x35)) (and (and (or x117 (or (or (or x156 x16) x116) x102)) (or x117 (or (or x41 (or x90 x29)) x18))) (and (or (or (or (or x120 x92) x46) x80) x155) (or (or x56 (or x52 (or x145 x151))) x155))))))))))
(assert (not (and (= x127 (x150 x37 x23)) (and (and (= x126 (x150 x97 x97)) (= (x150 x126 x97) x37)) (= x23 (x150 x97 x126))))))
(assert (not (and (= x126 (x150 x127 x23)) (and (= x23 (x150 x37 x97)) (and (= x127 (x150 x97 x37)) (= x97 (x150 x37 x37)))))))
(assert (not (and (and (= (x150 x126 x23) x37) (and (= x127 (x150 x23 x126)) (= x23 (x150 x126 x126)))) (= x97 (x150 x127 x37)))))
(assert (not (and (and (and (= x23 (x150 x127 x127)) (= x126 (x150 x23 x127))) (= (x150 x127 x23) x97)) (= (x150 x126 x97) x37))))
(assert (not (and (= x97 (x150 x127 x126)) (and (and (= (x150 x37 x23) x127) (= (x150 x23 x23) x37)) (= (x150 x23 x37) x126)))))
(assert (not (and (= (x150 x37 x23) x97) (and (= (x150 x127 x126) x23) (and (= (x150 x127 x127) x126) (= (x150 x126 x127) x37))))))
(assert (not (and (and (and (= (x150 x97 x37) x23) (= x97 (x150 x37 x37))) (= (x150 x37 x97) x127)) (= (x150 x23 x127) x126))))
(assert (not (and (= x126 (x150 x97 x37)) (and (= (x150 x127 x23) x37) (and (= x23 (x150 x127 x127)) (= (x150 x23 x127) x97))))))
(assert (not (and (and (= (x150 x126 x37) x97) (and (= (x150 x126 x126) x37) (= (x150 x37 x126) x127))) (= x23 (x150 x127 x97)))))
(assert (not (and (and (and (= x37 (x150 x23 x126)) (= (x150 x126 x126) x23)) (= (x150 x126 x23) x127)) (= x97 (x150 x37 x127)))))
(assert (not (and (and (and (= (x150 x127 x127) x37) (= (x150 x37 x127) x126)) (= (x150 x127 x37) x97)) (= x23 (x150 x126 x97)))))
(assert (not (and (and (and (= x127 (x150 x23 x37)) (= (x150 x37 x37) x23)) (= x97 (x150 x37 x23))) (= (x150 x127 x97) x126))))
(assert (not (and (= x37 (x150 x127 x97)) (and (and (= (x150 x126 x23) x127) (= x126 (x150 x23 x23))) (= x97 (x150 x23 x126))))))
(assert (not (and (and (= x23 (x150 x97 x37)) (and (= x37 (x150 x97 x97)) (= x127 (x150 x37 x97)))) (= (x150 x127 x23) x126))))
(assert (not (and (and (and (= (x150 x23 x37) x97) (= (x150 x37 x37) x23)) (= x127 (x150 x37 x23))) (= (x150 x97 x127) x126))))
(assert (not (and (= (x150 x23 x97) x37) (and (= (x150 x127 x126) x97) (and (= x23 (x150 x126 x127)) (= x126 (x150 x127 x127)))))))
(assert (not (and (= x126 (x150 x37 x97)) (and (and (= (x150 x127 x127) x23) (= (x150 x23 x127) x37)) (= x97 (x150 x127 x23))))))
(assert (not (and (= x97 (x150 x127 x126)) (and (and (= x23 (x150 x37 x37)) (= x127 (x150 x23 x37))) (= x126 (x150 x37 x23))))))
(assert (not (and (= x97 (x150 x37 x126)) (and (= x126 (x150 x23 x127)) (and (= (x150 x23 x23) x127) (= x37 (x150 x127 x23)))))))
(assert (not (and (and (= (x150 x126 x127) x97) (and (= x127 (x150 x126 x126)) (= (x150 x127 x126) x23))) (= (x150 x23 x97) x37))))
(assert (not (and (and (= x23 (x150 x127 x37)) (and (= (x150 x37 x127) x97) (= x37 (x150 x127 x127)))) (= (x150 x97 x23) x126))))
(assert (not (and (and (and (= (x150 x23 x126) x97) (= (x150 x126 x126) x23)) (= (x150 x126 x23) x37)) (= (x150 x97 x37) x127))))
(assert (not (and (= x23 (x150 x126 x37)) (and (and (= x127 (x150 x97 x97)) (= x126 (x150 x127 x97))) (= x37 (x150 x97 x127))))))
(assert (not (and (and (= (x150 x37 x126) x97) (and (= x127 (x150 x126 x37)) (= (x150 x37 x37) x126))) (= x23 (x150 x127 x97)))))
(assert (not (and (and (and (= (x150 x126 x126) x127) (= x37 (x150 x127 x126))) (= x97 (x150 x126 x127))) (= x23 (x150 x37 x97)))))
(assert (not (and (= x23 (x150 x97 x126)) (and (= x126 (x150 x127 x37)) (and (= x37 (x150 x127 x127)) (= (x150 x37 x127) x97))))))
(assert (let ((x51 (x150 x126 x126)) (x27 (x150 x97 x126)) (x22 (x150 x97 x127)) (x108 (x150 x23 x126)) (x81 (x150 x23 x23)) (x26 (x150 x37 x97)) (x11 (x150 x127 x23)) (x114 (x150 x126 x97)) (x73 (x150 x127 x97)) (x85 (x150 x37 x23)) (x89 (x150 x127 x37)) (x38 (x150 x126 x37)) (x140 (x150 x37 x127)) (x55 (x150 x127 x127)) (x128 (x150 x37 x37)) (x139 (x150 x97 x37)) (x57 (x150 x23 x127)) (x71 (x150 x126 x127)) (x12 (x150 x97 x97)) (x63 (x150 x127 x126)) (x6 (x150 x23 x97)) (x122 (x150 x126 x23)) (x87 (x150 x37 x126)) (x115 (x150 x23 x37)) (x7 (x150 x97 x23))) (let ((x66 (not (= x23 x11))) (x141 (not (= x23 x114))) (x28 (not (= x85 x37))) (x74 (not (= x126 x71))) (x8 (not (= x122 x126))) (x144 (not (= x127 x140))) (x153 (not (= x122 x23))) (x15 (not (= x23 x26))) (x110 (not (= x22 x23))) (x116 (not (= x6 x97))) (x21 (not (= x51 x126))) (x44 (not (= x127 x128))) (x46 (not (= x140 x97))) (x137 (not (= x126 x115))) (x93 (not (= x140 x23))) (x148 (not (= x73 x126))) (x86 (not (= x126 x7))) (x149 (not (= x89 x23))) (x9 (not (= x71 x127))) (x154 (not (= x126 x81))) (x142 (not (= x127 x115))) (x14 (not (= x127 x22))) (x90 (not (= x57 x97))) (x24 (not (= x51 x97))) (x39 (not (= x26 x37))) (x131 (not (= x27 x23))) (x109 (not (= x126 x12))) (x135 (not (= x11 x127))) (x3 (not (= x55 x127))) (x145 (not (= x22 x97))) (x67 (not (= x81 x37))) (x49 (not (= x71 x23))) (x25 (not (= x81 x23))) (x105 (not (= x23 x85))) (x62 (not (= x27 x127))) (x4 (not (= x127 x38))) (x1 (not (= x127 x89))) (x134 (not (= x126 x22))) (x95 (not (= x81 x127))) (x84 (not (= x51 x37))) (x125 (not (= x122 x127))) (x65 (not (= x81 x97))) (x82 (not (= x23 x6))) (x133 (not (= x6 x127))) (x92 (not (= x97 x87))) (x130 (not (= x7 x37))) (x43 (not (= x55 x23))) (x120 (not (= x97 x38))) (x112 (not (= x87 x126))) (x103 (not (= x128 x126))) (x121 (not (= x127 x108))) (x60 (not (= x139 x97))) (x158 (not (= x115 x37))) (x18 (not (= x71 x97))) (x101 (not (= x23 x128))) (x94 (not (= x139 x127))) (x50 (not (= x57 x37))) (x113 (not (= x127 x12))) (x136 (not (= x27 x126))) (x2 (not (= x127 x63))) (x48 (not (= x126 x85))) (x77 (not (= x126 x114))) (x41 (not (= x97 x63))) (x107 (not (= x37 x122))) (x106 (not (= x127 x85))) (x58 (not (= x63 x126))) (x75 (not (= x23 x87))) (x146 (not (= x6 x37))) (x33 (not (= x23 x12))) (x40 (not (= x127 x51))) (x36 (not (= x37 x38))) (x156 (not (= x97 x55))) (x5 (not (= x37 x71))) (x35 (not (= x63 x37))) (x96 (not (= x27 x37))) (x47 (not (= x37 x128))) (x152 (not (= x37 x108))) (x72 (not (= x97 x128))) (x68 (not (= x57 x23))) (x155 (not (= x97 x26))) (x16 (not (= x7 x97))) (x151 (not (= x97 x73))) (x45 (not (= x87 x37))) (x20 (not (= x26 x127))) (x59 (not (= x37 x11))) (x56 (not (= x85 x97))) (x132 (not (= x126 x89))) (x117 (not (= x114 x97))) (x53 (not (= x89 x37))) (x54 (not (= x126 x55))) (x147 (not (= x97 x108))) (x30 (not (= x126 x38))) (x119 (not (= x23 x115))) (x100 (not (= x57 x127))) (x157 (not (= x127 x87))) (x129 (not (= x57 x126))) (x88 (not (= x6 x126))) (x52 (not (= x12 x97))) (x124 (not (= x37 x140))) (x32 (not (= x73 x23))) (x34 (not (= x26 x126))) (x69 (not (= x127 x73))) (x98 (not (= x11 x126))) (x78 (not (= x127 x7))) (x31 (not (= x22 x37))) (x70 (not (= x115 x97))) (x42 (not (= x23 x7))) (x13 (not (= x23 x139))) (x102 (not (= x97 x27))) (x123 (not (= x37 x55))) (x91 (not (= x126 x140))) (x143 (not (= x114 x37))) (x19 (not (= x23 x38))) (x61 (not (= x126 x108))) (x17 (not (= x114 x127))) (x79 (not (= x23 x108))) (x80 (not (= x89 x97))) (x83 (not (= x126 x139))) (x138 (not (= x23 x63))) (x76 (not (= x23 x51))) (x64 (not (= x37 x12))) (x99 (not (= x139 x37))) (x29 (not (= x97 x11))) (x104 (not (= x73 x37))) (x118 (not (= x97 x122)))) (or (and (and (and (or x39 x99) (and (or x124 x53) (and (or x28 x158) (or x36 x45)))) (or x47 x47)) (and (and (and (and (or x104 x31) (and (and (or x59 x50) (or x35 x5)) (or x123 x123))) (or x124 x53)) (and (and (or x28 x158) (and (and (and (or x67 x67) (or x152 x107)) (or x59 x50)) (or x130 x146))) (and (or x36 x45) (and (or x143 x96) (and (and (or x107 x152) (or x84 x84)) (or x5 x35)))))) (and (or x39 x99) (and (or x64 x64) (and (and (or x143 x96) (or x146 x130)) (or x31 x104)))))) (or (or (or (and (and (and (or x13 x15) (and (and (or x110 x32) (and (or x131 x141) (or x82 x42))) (or x33 x33))) (and (and (and (or x119 x105) (and (and (and (or x25 x25) (or x153 x79)) (or x66 x68)) (or x42 x82))) (and (and (and (or x138 x49) (and (or x76 x76) (or x79 x153))) (or x141 x131)) (or x75 x19))) (and (and (or x110 x32) (and (and (or x138 x49) (or x66 x68)) (or x43 x43))) (or x149 x93)))) (and (or x101 x101) (and (and (or x149 x93) (and (or x105 x119) (or x75 x19))) (or x13 x15)))) (and (and (and (and (and (and (or x86 x88) (and (and (or x154 x154) (or x8 x61)) (or x129 x98))) (or x137 x48)) (and (and (and (and (or x21 x21) (or x61 x8)) (or x58 x74)) (or x77 x136)) (or x112 x30))) (and (or x91 x132) (and (and (or x54 x54) (and (or x98 x129) (or x58 x74))) (or x134 x148)))) (and (or x83 x34) (and (and (or x134 x148) (and (or x77 x136) (or x86 x88))) (or x109 x109)))) (and (or x103 x103) (and (and (or x91 x132) (and (or x112 x30) (or x48 x137))) (or x83 x34))))) (and (and (and (or x20 x94) (and (or x1 x144) (and (or x142 x106) (or x157 x4)))) (or x44 x44)) (and (and (and (or x1 x144) (and (and (and (or x9 x2) (or x135 x100)) (or x3 x3)) (or x69 x14))) (and (and (or x106 x142) (and (and (or x100 x135) (and (or x125 x121) (or x95 x95))) (or x133 x78))) (and (or x4 x157) (and (or x17 x62) (and (and (or x40 x40) (or x125 x121)) (or x9 x2)))))) (and (or x20 x94) (and (and (and (or x133 x78) (or x17 x62)) (or x14 x69)) (or x113 x113)))))) (and (and (and (or x155 x60) (and (or x52 x52) (and (or x151 x145) (and (or x117 x102) (or x116 x16))))) (and (and (and (and (or x102 x117) (and (and (or x118 x147) (or x24 x24)) (or x18 x41))) (or x120 x92)) (and (and (or x16 x116) (and (and (or x147 x118) (or x65 x65)) (or x29 x90))) (or x56 x70))) (and (or x46 x80) (and (or x145 x151) (and (or x156 x156) (and (or x90 x29) (or x41 x18))))))) (and (and (and (or x80 x46) (and (or x120 x92) (or x70 x56))) (or x60 x155)) (or x72 x72))))))))
(assert (not (and (= x97 (x150 x37 x126)) (and (and (= (x150 x23 x127) x37) (= x23 (x150 x127 x127))) (= x126 (x150 x127 x23))))))
(assert (not (and (= (x150 x23 x37) x126) (and (and (= (x150 x127 x97) x23) (= x127 (x150 x97 x97))) (= x37 (x150 x97 x127))))))
(assert (not (and (= (x150 x127 x97) x37) (and (and (= (x150 x126 x126) x23) (= (x150 x23 x126) x127)) (= (x150 x126 x23) x97)))))
(assert (not (and (= x126 (x150 x37 x127)) (and (and (= (x150 x23 x23) x97) (= x37 (x150 x97 x23))) (= x127 (x150 x23 x97))))))
(assert (not (and (= x37 (x150 x97 x23)) (and (= (x150 x126 x127) x23) (and (= (x150 x126 x126) x127) (= (x150 x127 x126) x97))))))
(assert (not (and (and (= (x150 x97 x127) x126) (and (= (x150 x127 x97) x37) (= x127 (x150 x97 x97)))) (= x23 (x150 x37 x126)))))
(assert (let ((x93 (x150 x37 x127)) (x68 (x150 x23 x127)) (x13 (x150 x97 x37)) (x79 (x150 x23 x126)) (x141 (x150 x126 x97)) (x82 (x150 x23 x97)) (x42 (x150 x97 x23)) (x153 (x150 x126 x23)) (x149 (x150 x127 x37)) (x105 (x150 x37 x23)) (x119 (x150 x23 x37)) (x138 (x150 x127 x126)) (x15 (x150 x37 x97)) (x33 (not (= (x150 x97 x97) x97))) (x25 (not (= (x150 x23 x23) x23))) (x19 (x150 x126 x37)) (x66 (x150 x127 x23)) (x75 (x150 x37 x126)) (x101 (not (= x37 (x150 x37 x37)))) (x43 (not (= x127 (x150 x127 x127)))) (x32 (x150 x127 x97)) (x110 (x150 x97 x127)) (x76 (not (= (x150 x126 x126) x126))) (x49 (x150 x126 x127)) (x131 (x150 x97 x126))) (and (and (and (and (and (and (or (not (= x126 x131)) (not (= x141 x126))) (and (or (not (= x138 x126)) (not (= x126 x49))) (and (or (not (= x153 x126)) (not (= x126 x79))) (or x76 x76)))) (or (not (= x126 x75)) (not (= x126 x19)))) (and (and (or (not (= x23 x82)) (not (= x42 x23))) (and (and (or x25 x25) (or (not (= x153 x23)) (not (= x79 x23)))) (or (not (= x66 x23)) (not (= x23 x68))))) (or (not (= x23 x105)) (not (= x119 x23))))) (and (and (and (and (or (not (= x49 x127)) (not (= x127 x138))) (or (not (= x66 x127)) (not (= x68 x127)))) (or x43 x43)) (or (not (= x127 x110)) (not (= x32 x127)))) (or (not (= x127 x93)) (not (= x149 x127))))) (and (and (or x33 x33) (and (and (or (not (= x82 x97)) (not (= x42 x97))) (or (not (= x131 x97)) (not (= x97 x141)))) (or (not (= x32 x97)) (not (= x97 x110))))) (or (not (= x97 x15)) (not (= x97 x13))))) (and (and (or (not (= x15 x37)) (not (= x37 x13))) (and (or (not (= x37 x149)) (not (= x37 x93))) (and (or (not (= x37 x119)) (not (= x37 x105))) (or (not (= x75 x37)) (not (= x37 x19)))))) (or x101 x101)))))
(assert (not (and (= (x150 x97 x127) x126) (and (= x127 (x150 x23 x37)) (and (= x97 (x150 x37 x23)) (= x37 (x150 x23 x23)))))))
(assert (not (and (= x126 (x150 x23 x97)) (and (= (x150 x37 x127) x97) (and (= x127 (x150 x37 x37)) (= (x150 x127 x37) x23))))))
(assert (not (and (= x97 (x150 x126 x23)) (and (and (= x126 (x150 x37 x127)) (= x37 (x150 x127 x127))) (= x23 (x150 x127 x37))))))
(assert (not (and (= (x150 x126 x127) x97) (and (and (= (x150 x37 x37) x23) (= x126 (x150 x23 x37))) (= (x150 x37 x23) x127)))))
(assert (not (and (= x37 (x150 x127 x23)) (and (and (= x127 (x150 x97 x126)) (= x97 (x150 x126 x126))) (= x23 (x150 x126 x97))))))
(assert (not (and (and (and (= (x150 x23 x23) x127) (= x37 (x150 x127 x23))) (= x97 (x150 x23 x127))) (= (x150 x37 x97) x126))))
(assert (not (and (= (x150 x23 x127) x97) (and (= x127 (x150 x126 x37)) (and (= x23 (x150 x37 x126)) (= x37 (x150 x126 x126)))))))
(assert (not (and (and (and (= x23 (x150 x97 x97)) (= (x150 x23 x97) x37)) (= x127 (x150 x97 x23))) (= x126 (x150 x37 x127)))))
(assert (not (and (= (x150 x23 x97) x127) (and (and (= (x150 x37 x37) x126) (= (x150 x126 x37) x23)) (= (x150 x37 x126) x97)))))
(assert (not (and (and (and (= (x150 x126 x23) x97) (= x126 (x150 x23 x23))) (= x37 (x150 x23 x126))) (= x127 (x150 x97 x37)))))
(assert (not (and (and (= x37 (x150 x97 x126)) (and (= (x150 x126 x97) x127) (= (x150 x97 x97) x126))) (= (x150 x127 x37) x23))))
(assert (not (and (= (x150 x127 x126) x37) (and (and (= (x150 x23 x23) x97) (= x127 (x150 x97 x23))) (= (x150 x23 x97) x126)))))
(assert (not (and (= x23 (x150 x37 x127)) (and (and (= x37 (x150 x126 x97)) (= (x150 x97 x97) x126)) (= x127 (x150 x97 x126))))))
(assert (not (and (and (and (= x97 (x150 x127 x127)) (= (x150 x97 x127) x37)) (= (x150 x127 x97) x126)) (= (x150 x37 x126) x23))))
(assert (not (and (= x127 (x150 x97 x126)) (and (= x126 (x150 x37 x23)) (and (= (x150 x37 x37) x23) (= (x150 x23 x37) x97))))))
(assert (not (and (and (and (= (x150 x23 x23) x37) (= (x150 x37 x23) x97)) (= (x150 x23 x37) x126)) (= (x150 x97 x126) x127))))
(assert (not (and (and (and (= (x150 x97 x97) x127) (= x23 (x150 x127 x97))) (= (x150 x97 x127) x126)) (= (x150 x23 x126) x37))))
(assert (not (and (and (and (= x126 (x150 x127 x23)) (= (x150 x23 x23) x127)) (= (x150 x23 x127) x37)) (= (x150 x126 x37) x97))))
(assert (let ((x76 (x150 x97 x23)) (x49 (x150 x127 x126)) (x138 (x150 x126 x126)) (x93 (x150 x23 x37)) (x141 (x150 x127 x127)) (x68 (x150 x23 x126)) (x105 (x150 x126 x97)) (x119 (x150 x127 x97)) (x66 (x150 x37 x23)) (x149 (x150 x126 x37)) (x153 (x150 x126 x23)) (x15 (x150 x127 x37)) (x101 (x150 x37 x37)) (x131 (x150 x126 x127)) (x75 (x150 x97 x97)) (x13 (x150 x97 x37)) (x43 (x150 x97 x126)) (x33 (x150 x23 x97)) (x42 (x150 x37 x126)) (x79 (x150 x127 x23)) (x82 (x150 x23 x127)) (x25 (x150 x23 x23)) (x32 (x150 x37 x127)) (x110 (x150 x97 x127)) (x19 (x150 x37 x97))) (and (and (and (not (= x13 x101)) (and (not (= x101 x15)) (and (and (not (= x101 x149)) (and (and (and (not (= x101 x93)) (and (not (= x93 x13)) (and (not (= x149 x93)) (not (= x93 x15))))) (not (= x15 x149))) (not (= x13 x149)))) (not (= x13 x15))))) (and (and (not (= x75 x19)) (and (not (= x119 x19)) (and (not (= x75 x119)) (and (not (= x105 x19)) (and (and (and (and (and (not (= x105 x33)) (not (= x33 x119))) (not (= x75 x33))) (not (= x19 x33))) (not (= x119 x105))) (not (= x105 x75))))))) (and (and (and (and (not (= x141 x110)) (and (and (and (and (not (= x82 x32)) (and (and (not (= x82 x141)) (not (= x131 x82))) (not (= x82 x110)))) (not (= x141 x131))) (not (= x131 x110))) (not (= x131 x32)))) (not (= x141 x32))) (not (= x32 x110))) (and (and (and (and (not (= x79 x76)) (and (and (and (and (not (= x66 x25)) (and (not (= x25 x76)) (and (not (= x25 x153)) (not (= x25 x79))))) (not (= x153 x79))) (not (= x76 x153))) (not (= x153 x66)))) (not (= x79 x66))) (not (= x66 x76))) (and (not (= x42 x43)) (and (and (and (not (= x42 x138)) (and (and (and (not (= x42 x68)) (and (not (= x68 x43)) (and (not (= x138 x68)) (not (= x68 x49))))) (not (= x138 x49))) (not (= x138 x43)))) (not (= x49 x43))) (not (= x42 x49)))))))) (and (and (not (= x101 x19)) (and (and (not (= x19 x32)) (and (not (= x42 x101)) (and (not (= x42 x19)) (and (not (= x32 x42)) (and (not (= x101 x66)) (and (and (not (= x66 x42)) (not (= x66 x32))) (not (= x66 x19)))))))) (not (= x101 x32)))) (and (and (not (= x13 x75)) (and (and (and (not (= x43 x13)) (and (and (and (not (= x76 x13)) (and (and (not (= x43 x76)) (not (= x110 x76))) (not (= x76 x75)))) (not (= x43 x110))) (not (= x43 x75)))) (not (= x75 x110))) (not (= x13 x110)))) (and (and (and (not (= x149 x105)) (and (and (and (not (= x138 x149)) (and (not (= x105 x138)) (and (not (= x131 x138)) (and (and (not (= x153 x105)) (and (not (= x153 x131)) (not (= x153 x138)))) (not (= x149 x153)))))) (not (= x131 x105))) (not (= x131 x149)))) (and (and (not (= x82 x93)) (and (and (not (= x68 x93)) (and (and (and (and (and (not (= x82 x25)) (not (= x25 x68))) (not (= x33 x25))) (not (= x25 x93))) (not (= x82 x68))) (not (= x33 x68)))) (not (= x82 x33)))) (not (= x33 x93)))) (and (not (= x15 x119)) (and (not (= x141 x15)) (and (not (= x141 x119)) (and (and (not (= x49 x119)) (and (not (= x49 x141)) (and (and (not (= x79 x119)) (and (not (= x49 x79)) (not (= x79 x141)))) (not (= x15 x79))))) (not (= x49 x15))))))))))))
(assert (not (and (= x37 (x150 x23 x127)) (and (and (= (x150 x126 x126) x97) (= (x150 x97 x126) x23)) (= (x150 x126 x97) x127)))))
(assert (not (and (and (and (= (x150 x23 x97) x126) (= (x150 x97 x97) x23)) (= (x150 x97 x23) x37)) (= x127 (x150 x126 x37)))))
(assert (not (and (= (x150 x97 x127) x37) (and (= (x150 x126 x23) x127) (and (= x23 (x150 x126 x126)) (= (x150 x23 x126) x97))))))
(assert (not (and (and (and (= x97 (x150 x23 x23)) (= (x150 x97 x23) x127)) (= x37 (x150 x23 x97))) (= x126 (x150 x127 x37)))))
(assert (not (and (and (= x37 (x150 x97 x126)) (and (= x23 (x150 x126 x97)) (= x126 (x150 x97 x97)))) (= (x150 x23 x37) x127))))
(assert (not (and (and (and (= (x150 x97 x97) x127) (= (x150 x127 x97) x37)) (= (x150 x97 x127) x23)) (= x126 (x150 x37 x23)))))
(assert (not (and (= (x150 x97 x127) x37) (and (and (= (x150 x23 x23) x126) (= (x150 x126 x23) x97)) (= (x150 x23 x126) x127)))))
(assert (let ((x76 (x150 x97 x97)) (x66 (x150 x37 x37)) (x25 (x150 x23 x23)) (x153 (x150 x126 x126)) (x79 (x150 x127 x127))) (or (= (x150 x66 x66) x37) (or (or (or (= (x150 x153 x153) x126) (= x23 (x150 x25 x25))) (= (x150 x79 x79) x127)) (= (x150 x76 x76) x97)))))
(assert (not (and (and (and (= (x150 x97 x23) x126) (= x97 (x150 x23 x23))) (= (x150 x23 x97) x37)) (= x127 (x150 x126 x37)))))
(assert (not (and (= (x150 x126 x37) x23) (and (= x37 (x150 x127 x97)) (and (= x97 (x150 x127 x127)) (= x126 (x150 x97 x127)))))))
(assert (not (and (and (= x23 (x150 x126 x127)) (and (= (x150 x127 x126) x37) (= (x150 x126 x126) x127))) (= (x150 x37 x23) x97))))
(assert (not (and (and (and (= x97 (x150 x37 x37)) (= (x150 x97 x37) x126)) (= x23 (x150 x37 x97))) (= (x150 x126 x23) x127))))
(assert (not (and (and (= x126 (x150 x97 x37)) (and (= x37 (x150 x97 x97)) (= x127 (x150 x37 x97)))) (= (x150 x127 x126) x23))))
(assert (not (and (and (and (= x23 (x150 x126 x127)) (= x126 (x150 x127 x127))) (= (x150 x127 x126) x37)) (= x97 (x150 x23 x37)))))
(check-sat)
(exit)
